19
0 1 1 2 3 0 0 2 4 1 0 5 6 2 2 6 7 8 9 0 6 1 4 6 10 11 6 10 0 7 5 12 10 7 10 11 4 8 6 12 13 1 2 8 11 2 14 7 15 12 14 16 8 11 12 15 1 11 8 17 4 14 0 8 15 16 17 7 16 16 14 14 5 10 11 14 7 13 15 17 13 16 3 8 14 3 13 9 1 17 5 4 18 9 5 0 17 2 14 18 
